c description: Random 3-CNF over 20 variables and 85 clauses
c generator: CNFgen (0.9.2)
c copyright: (C) 2012-2022 Massimo Lauria <massimo.lauria@uniroma1.it>
c url: https://massimolauria.net/cnfgen
c command line: cnfgen --output CNF_4.28/20_bit_85_392.cnf randkcnf 3 20 85
c
p cnf 20 85
-6 -14 18 0
1 -12 -20 0
-10 -16 -20 0
-1 5 8 0
8 -9 -16 0
5 7 -20 0
-2 -6 -20 0
4 10 -14 0
6 -10 -17 0
-2 -3 5 0
-10 11 -15 0
4 -13 -18 0
6 16 19 0
7 -8 -10 0
2 6 18 0
-9 11 -13 0
-4 -5 6 0
1 -6 8 0
6 -10 11 0
-1 3 -8 0
2 -14 -15 0
3 6 11 0
1 15 17 0
-3 -16 17 0
-16 -17 19 0
15 -16 19 0
6 9 -18 0
12 15 18 0
-7 -15 -16 0
-1 -3 -17 0
6 12 17 0
-1 -2 11 0
-3 7 -17 0
9 -17 -18 0
1 16 -19 0
-11 13 18 0
2 6 10 0
1 5 8 0
-1 3 -17 0
10 14 -15 0
9 11 16 0
-11 -12 13 0
2 -8 10 0
2 -4 -19 0
-7 -17 19 0
-9 14 -18 0
-5 10 -13 0
3 4 -13 0
2 8 16 0
-4 -9 -16 0
3 7 12 0
5 -13 17 0
-16 -19 20 0
-7 -11 -18 0
6 -16 19 0
1 -4 -19 0
-1 13 16 0
-2 4 -12 0
4 -12 -19 0
2 -12 19 0
-5 -12 -20 0
-12 -15 -18 0
12 17 -20 0
-4 -16 -20 0
8 16 20 0
-4 8 -19 0
-5 -7 12 0
-7 14 -18 0
-2 -5 -20 0
-2 -12 -14 0
2 -13 16 0
7 13 -16 0
-12 -13 -20 0
-2 3 -17 0
4 -7 18 0
10 16 20 0
1 -5 20 0
-3 17 20 0
2 -6 -10 0
1 3 -10 0
4 -10 -16 0
6 9 18 0
6 -16 -18 0
-5 -12 -19 0
13 -15 18 0
